225
378
310
48
266
27
440
68
408
240
30
376
216
50
430
96
343
312
224
270
35
260
287
62
336
111
78
396
165
200
400
203
276
252
225
378
248
147
38
81
45
170
459
328
60
47
148
182
258
128
250
312
196
230
70
260
210
93
384
74
270
352
165
306
160
58
235
216
250
258
192
49
342
28
45
102
520
41
210
480
222
130
352
132
300
273
145
138
280
75
420
155
196
266
54
44
340
51
400
